qbf_easy_train/easy_558_UNSAT.qdimacs
p cnf 25 62
a 8 11 0
e 1 2 3 4 5 6 7 9 10 12 13 14 15 16 17 18 19 20 21 22 23 24 25 0
4 2 0
4 3 0
-2 -3 -4 0
-5 1 0
-5 -4 0
-1 4 5 0
-8 -3 0
-8 -7 0
3 7 8 0
-6 8 -9 0
6 -8 -9 0
-6 -8 9 0
6 8 9 0
11 6 0
11 -10 0
-6 10 -11 0
12 10 0
12 10 0
-10 -12 0
-13 11 0
-13 12 0
-11 -12 13 0
9 13 -14 0
-9 -13 -14 0
9 -13 14 0
-9 13 14 0
16 -15 0
16 11 0
15 -11 -16 0
-17 14 0
-17 16 0
-14 -16 17 0
-18 -12 0
-18 -11 0
12 11 18 0
-19 17 0
-19 18 0
-17 -18 19 0
20 -10 0
20 2 0
10 -2 -20 0
19 -20 -21 0
-19 20 -21 0
19 20 21 0
-19 -20 21 0
-22 5 0
-22 -21 0
-5 21 22 0
-24 -23 0
-24 -12 0
23 12 24 0
-22 -24 -25 0
22 24 -25 0
-22 24 25 0
22 -24 25 0
-8 11 -17 -19 21 0
17 -24 23 -22 -14 0
12 23 -25 5 0
13 -17 -2 21 -3 -4 -1 0
-20 -22 4 0
-4 5 18 0
25 0
