sat_easy_train/easy_558_UNSAT.dimacs
p cnf 108 361
-3 1 0
-3 2 0
-1 -2 3 0
-2 -4 -5 0
2 4 -5 0
-2 4 5 0
2 -4 5 0
-7 -5 0
-7 6 0
5 -6 7 0
-3 7 -8 0
3 -7 -8 0
-3 -7 8 0
3 7 8 0
9 5 0
9 -1 0
-5 1 -9 0
-10 8 0
-10 -9 0
-8 9 10 0
11 -12 -13 0
-11 12 -13 0
11 12 13 0
-11 -12 13 0
9 13 -14 0
-9 -13 -14 0
9 -13 14 0
-9 13 14 0
-15 10 0
-15 -14 0
-10 14 15 0
-11 6 -16 0
11 -6 -16 0
-11 -6 16 0
11 6 16 0
18 11 0
18 -17 0
-11 17 -18 0
6 18 -19 0
-6 -18 -19 0
6 -18 19 0
-6 18 19 0
16 -19 -20 0
-16 19 -20 0
16 19 20 0
-16 -19 20 0
21 -15 0
21 20 0
15 -20 -21 0
16 19 -22 0
-16 -19 -22 0
16 -19 22 0
-16 19 22 0
25 23 0
25 -24 0
-23 24 -25 0
-3 -1 -26 0
3 1 -26 0
-3 1 26 0
3 -1 26 0
27 25 0
27 26 0
-25 -26 -27 0
28 -27 0
28 18 0
27 -18 -28 0
28 3 -29 0
-28 -3 -29 0
28 -3 29 0
-28 3 29 0
-31 30 0
-31 -2 0
-30 2 31 0
-29 31 -32 0
29 -31 -32 0
-29 -31 32 0
29 31 32 0
-33 22 0
-33 32 0
-22 -32 33 0
34 21 0
34 -33 0
-21 33 -34 0
36 35 0
36 1 0
-35 -1 -36 0
3 5 -37 0
-3 -5 -37 0
3 -5 37 0
-3 5 37 0
-12 23 -38 0
12 -23 -38 0
-12 -23 38 0
12 23 38 0
-38 11 -39 0
38 -11 -39 0
-38 -11 39 0
38 11 39 0
-40 -37 0
-40 39 0
37 -39 40 0
-41 31 -42 0
41 -31 -42 0
-41 -31 42 0
41 31 42 0
43 -30 0
43 -7 0
30 7 -43 0
-44 28 0
-44 -43 0
-28 43 44 0
42 -44 -45 0
-42 44 -45 0
42 44 45 0
-42 -44 45 0
46 -40 0
46 45 0
40 -45 -46 0
47 4 0
47 -38 0
-4 38 -47 0
-48 -16 0
-48 -47 0
16 47 48 0
49 -23 0
49 5 0
23 -5 -49 0
-50 -7 0
-50 49 0
7 -49 50 0
-48 50 -51 0
48 -50 -51 0
-48 -50 51 0
48 50 51 0
-51 30 -52 0
51 -30 -52 0
-51 -30 52 0
51 30 52 0
53 46 0
53 -52 0
-46 52 -53 0
-36 -53 -54 0
36 53 -54 0
-36 53 54 0
36 -53 54 0
-16 24 -55 0
16 -24 -55 0
-16 -24 55 0
16 24 55 0
25 47 -56 0
-25 -47 -56 0
25 -47 56 0
-25 47 56 0
55 56 -57 0
-55 -56 -57 0
55 -56 57 0
-55 56 57 0
-59 -28 0
-59 9 0
28 -9 59 0
-60 58 0
-60 59 0
-58 -59 60 0
61 57 0
61 60 0
-57 -60 -61 0
17 -47 -62 0
-17 47 -62 0
17 47 62 0
-17 -47 62 0
63 41 0
63 -17 0
-41 17 -63 0
-31 63 -64 0
31 -63 -64 0
-31 -63 64 0
31 63 64 0
-65 64 0
-65 11 0
-64 -11 65 0
-66 -62 0
-66 65 0
62 -65 66 0
-68 67 0
-68 28 0
-67 -28 68 0
69 35 0
69 -17 0
-35 17 -69 0
-43 23 -70 0
43 -23 -70 0
-43 -23 70 0
43 23 70 0
-71 16 -72 0
71 -16 -72 0
-71 -16 72 0
71 16 72 0
-73 70 0
-73 72 0
-70 -72 73 0
74 69 0
74 73 0
-69 -73 -74 0
75 68 0
75 74 0
-68 -74 -75 0
76 -66 0
76 -75 0
66 75 -76 0
-77 -61 0
-77 -76 0
61 76 77 0
54 -77 -78 0
-54 77 -78 0
54 77 78 0
-54 -77 78 0
79 34 0
79 -78 0
-34 78 -79 0
80 -7 0
80 -25 0
7 25 -80 0
81 5 0
81 80 0
-5 -80 -81 0
-23 -12 -82 0
23 12 -82 0
-23 12 82 0
23 -12 82 0
83 -81 0
83 -82 0
81 82 -83 0
84 -23 0
84 24 0
23 -24 -84 0
-84 25 -85 0
84 -25 -85 0
-84 -25 85 0
84 25 85 0
-41 -86 -87 0
41 86 -87 0
-41 86 87 0
41 -86 87 0
-87 -29 -88 0
87 29 -88 0
-87 29 88 0
87 -29 88 0
89 -58 0
89 69 0
58 -69 -89 0
90 -13 0
90 89 0
13 -89 -90 0
-91 51 0
-91 -90 0
-51 90 91 0
92 88 0
92 -91 0
-88 91 -92 0
85 -92 -93 0
-85 92 -93 0
85 92 93 0
-85 -92 93 0
25 -47 -94 0
-25 47 -94 0
25 47 94 0
-25 -47 94 0
95 -58 0
95 64 0
58 -64 -95 0
-96 -94 0
-96 -95 0
94 95 96 0
-97 93 0
-97 96 0
-93 -96 97 0
-98 -2 0
-98 -11 0
2 11 98 0
99 17 0
99 -98 0
-17 98 -99 0
-97 -99 -100 0
97 99 -100 0
-97 99 100 0
97 -99 100 0
83 -100 -101 0
-83 100 -101 0
83 100 101 0
-83 -100 101 0
102 23 0
102 63 0
-23 -63 -102 0
-103 73 0
-103 1 0
-73 -1 103 0
-69 47 -104 0
69 -47 -104 0
-69 -47 104 0
69 47 104 0
-105 -103 0
-105 104 0
103 -104 105 0
-102 -105 -106 0
102 105 -106 0
-102 105 106 0
102 -105 106 0
107 101 0
107 106 0
-101 -106 -107 0
108 -79 0
108 107 0
79 -107 -108 0
-85 69 -101 -55 0
60 69 0
35 -69 -84 8 -45 -65 0
-53 -97 -8 -102 30 -47 0
-27 -4 3 -93 49 -41 0
3 -106 -103 88 0
-77 9 60 6 31 0
41 92 -5 0
89 -65 33 0
17 -31 -6 -22 0
73 56 -77 0
-14 71 0
80 10 39 0
17 -58 0
50 -97 -100 -16 -96 -99 0
49 -99 16 -54 43 0
56 -47 65 -61 0
78 -41 0
-49 25 6 12 0
72 10 -93 108 -15 0
98 9 -29 57 46 0
-53 -93 78 74 0
44 56 -70 75 -12 85 0
-2 -94 9 0
-8 -18 0
5 -70 -37 0
86 -71 10 0
66 101 54 -69 -99 0
-34 -31 61 58 -8 22 0
97 -81 0
17 71 -83 0
14 54 -67 0
-7 -62 -51 -28 0
54 -65 107 -80 0
-51 -20 98 0
-56 -45 0
-103 -82 -36 -69 0
-107 86 -16 0
78 -70 0
-98 107 6 88 -39 7 0
-22 -76 60 16 0
35 15 0
30 -7 0
72 79 -55 21 0
19 -59 -60 0
58 22 -11 -62 99 31 0
-13 21 0
108 0
